TileNumber = 84;
numOfRegularCards = 26;
numOfTypes = 4;
Cards = [4, 2, 9, 5, 7, 4, 3, 3, 4, 3, 3, 5, 2, 1, 1, 1, 1, 2, 6, 8, 2, 1, 1, 4, 1, 1];
%Types = {FPTP,PFFF,PFFP,FFTF,FTTF,FTTT,PFTP,PPTF,PPFP,PPTP,PTTT,PPTT,FFFR,RRPP,RRTT,RPRT,RFRP,FFRR,FTFT,PFPF,RFRF,RPRP,RTRT,FFFF,TTTT,PPPP};
Tiles = [FPTP,PFFF,PFFP,FFTF,FTTF,FTTT,PFTP,PPTF,PPFP,PPTP,PTTT,PPTT,FFFR,RRPP,RRTT,RPRT,RFRP,FFRR,FTFT,PFPF,RFRF,RPRP,RTRT,FFFF,TTTT,PPPP];
%["FPTP","PFFF","PFFP","FFTF","FTTF","FTTT","PFTP","PPTF","PPFP","PPTP","PTTT","PPTT","FFFR","RRPP","RRTT","RPRT","RFRP","FFRR","FTFT","PFPF","RFRF","RPRP","RTRT","FFFF","TTTT","PPPP"];
OldTiles	= [|F, P, T, P
|P, F, F, F
|P, F, F, P
|F, F, T, F
|F, T, T, F
|F, T, T, T
|P, F, T, P
|P, P, T, F
|P, P, F, P
|P, P, T, P
|P, T, T, T
|P, P, T, T
|F, F, F, R
|R, R, P, P
|R, R, T, T
|R, P, R, T
|R, F, R, P
|F, F, R, R
|F, T, F, T
|P, F, P, F
|R, F, R, F
|R, P, R, P
|R, T, R, T
|F, F, F, F
|T, T, T, T
|P, P, P, P |];


RotationCount = [4, 4, 4, 4, 4, 4, 4, 4, 4, 4, 4, 4, 4, 4, 4, 4, 4, 4, 2, 2, 2, 2, 2, 1, 1, 1];
%RotationTable = [];
/*[|F, P, T, P
|P, T, P, F
|T, P, F, P
|P, F, P, T

|P, F, F, F
|F, F, F, P
|F, F, P, F
|F, P, F, F

|P, F, F, P
|F, F, P, P
|F, P, P, F
|P, P, F, F

|F, F, T, F
|F, T, F, F
|T, F, F, F
|F, F, F, T

|F, T, T, F
|T, T, F, F
|T, F, F, T
|F, F, T, T

|F, T, T, T
|T, T, T, F
|T, T, F, T
|T, F, T, T

|P, F, T, P
|F, T, P, P
|T, P, P, F
|P, P, F, T

|P, P, T, F
|P, T, F, P
|T, F, P, P
|F, P, P, T

|P, P, F, P
|P, F, P, P
|F, P, P, P
|P, P, P, F

|P, P, T, P
|P, T, P, P
|T, P, P, P
|P, P, P, T

|P, T, T, T
|T, P, T, T
|T, T, P, T
|T, T, T, P

|P, P, T, T
|P, T, T, P
|T, T, P, P
|T, P, P, T

|F, F, F, R
|F, F, R, F
|F, R, F, F
|R, F, F, F

|R, R, P, P
|R, P, P, R
|P, P, R, R
|P, R, R, P

|R, R, T, T
|R, T, T, R
|T, T, R, R
|T, R, R, T

|R, P, R, T
|P, R, T, R
|R, T, R, P
|T, R, P, R

|R, F, R, P
|F, R, P, R
|R, P, R, F
|P, R, F, R

|F, F, R, R
|F, R, R, F
|R, R, F, F
|R, F, F, R

|F, T, F, T
|T, F, T, F

|P, F, P, F
|F, P, F, P

|R, F, R, F
|F, R, F, R

|R, P, R, P
|P, R, P, R

|R, T, R, T
|T, R, T, R

|F, F, F, F

|T, T, T, T

|P, P, P, P|];*/